72
Lattice="25.0 0.0 0.0 0.0 25.0 0.0 0.0 0.0 50.0" Properties=species:S:1:pos:R:3 pbc="T T F"
Ar         0.00000000         0.00000000        23.65000000
Ar         0.00000000         3.82000000        23.65000000
Ar         0.00000000         7.64000000        23.65000000
Ar         0.00000000        11.46000000        23.65000000
Ar         0.00000000        15.28000000        23.65000000
Ar         0.00000000        19.10000000        23.65000000
Ar         3.82000000         0.00000000        23.65000000
Ar         3.82000000         3.82000000        23.65000000
Ar         3.82000000         7.64000000        23.65000000
Ar         3.82000000        11.46000000        23.65000000
Ar         3.82000000        15.28000000        23.65000000
Ar         3.82000000        19.10000000        23.65000000
Ar         7.64000000         0.00000000        23.65000000
Ar         7.64000000         3.82000000        23.65000000
Ar         7.64000000         7.64000000        23.65000000
Ar         7.64000000        11.46000000        23.65000000
Ar         7.64000000        15.28000000        23.65000000
Ar         7.64000000        19.10000000        23.65000000
Ar        11.46000000         0.00000000        23.65000000
Ar        11.46000000         3.82000000        23.65000000
Ar        11.46000000         7.64000000        23.65000000
Ar        11.46000000        11.46000000        23.65000000
Ar        11.46000000        15.28000000        23.65000000
Ar        11.46000000        19.10000000        23.65000000
Ar        15.28000000         0.00000000        23.65000000
Ar        15.28000000         3.82000000        23.65000000
Ar        15.28000000         7.64000000        23.65000000
Ar        15.28000000        11.46000000        23.65000000
Ar        15.28000000        15.28000000        23.65000000
Ar        15.28000000        19.10000000        23.65000000
Ar        19.10000000         0.00000000        23.65000000
Ar        19.10000000         3.82000000        23.65000000
Ar        19.10000000         7.64000000        23.65000000
Ar        19.10000000        11.46000000        23.65000000
Ar        19.10000000        15.28000000        23.65000000
Ar        19.10000000        19.10000000        23.65000000
Ar         1.91000000         1.91000000        26.35000000
Ar         1.91000000         5.73000000        26.35000000
Ar         1.91000000         9.55000000        26.35000000
Ar         1.91000000        13.37000000        26.35000000
Ar         1.91000000        17.19000000        26.35000000
Ar         1.91000000        21.01000000        26.35000000
Ar         5.73000000         1.91000000        26.35000000
Ar         5.73000000         5.73000000        26.35000000
Ar         5.73000000         9.55000000        26.35000000
Ar         5.73000000        13.37000000        26.35000000
Ar         5.73000000        17.19000000        26.35000000
Ar         5.73000000        21.01000000        26.35000000
Ar         9.55000000         1.91000000        26.35000000
Ar         9.55000000         5.73000000        26.35000000
Ar         9.55000000         9.55000000        26.35000000
Ar         9.55000000        13.37000000        26.35000000
Ar         9.55000000        17.19000000        26.35000000
Ar         9.55000000        21.01000000        26.35000000
Ar        13.37000000         1.91000000        26.35000000
Ar        13.37000000         5.73000000        26.35000000
Ar        13.37000000         9.55000000        26.35000000
Ar        13.37000000        13.37000000        26.35000000
Ar        13.37000000        17.19000000        26.35000000
Ar        13.37000000        21.01000000        26.35000000
Ar        17.19000000         1.91000000        26.35000000
Ar        17.19000000         5.73000000        26.35000000
Ar        17.19000000         9.55000000        26.35000000
Ar        17.19000000        13.37000000        26.35000000
Ar        17.19000000        17.19000000        26.35000000
Ar        17.19000000        21.01000000        26.35000000
Ar        21.01000000         1.91000000        26.35000000
Ar        21.01000000         5.73000000        26.35000000
Ar        21.01000000         9.55000000        26.35000000
Ar        21.01000000        13.37000000        26.35000000
Ar        21.01000000        17.19000000        26.35000000
Ar        21.01000000        21.01000000        26.35000000
